NAME: tsp30_4
COMMENT: 30-tsp problem (Padberg/Rinaldi)
TYPE: TSP
DIMENSION: 30
EDGE_WEIGHT_TYPE : EUC_2D
NODE_COORD_SECTION
1 23 26
2 38 32
3 24 10
4 14 6
5 40 18
6 35 13
7 1 27
8 1 20
9 5 37
10 1 7
11 25 3
12 11 20
13 3 24
14 23 25
15 40 5
16 0 6
17 6 22
18 3 12
19 3 33
20 40 28
21 26 18
22 11 14
23 15 2
24 15 13
25 40 21
26 0 4
27 1 32
28 19 11
29 29 35
30 18 2
